p cnf 19 8
a 1 2 0
e 3 0
a 4 5 0
e 6 7 0
a 8 9 0
e 10 0
a 11 0
e 12 13 14 15 0
a 16 0
e 17 18 0
a 19 0
-16 7 -19 -3 0
-11 -4 -13 0
-9 13 19 -8 0
11 -4 -3 -13 12 0
16 -6 1 0
2 -19 9 -17 0
-6 19 -16 2 8 0
7 15 -5 9 -17 0
